\Problem name: 

Minimize
OBJROW: 41 x_0_0 + 27 x_0_1 + 28 x_0_2 + 24 x_0_3 + 40 x_1_0 + 29 x_1_1 + 23 x_1_3 + 37 x_2_0 + 30 x_2_1 + 27 x_2_2
 + 21 x_2_3
Subject To
constr(0):  x_0_0 + x_0_1 + x_0_2 + x_0_3 <= 75
constr(1):  x_1_0 + x_1_1 + x_1_2 + x_1_3 <= 75
constr(2):  x_2_0 + x_2_1 + x_2_2 + x_2_3 <= 45
constr(3):  x_0_0 + x_1_0 + x_2_0 >= 20
constr(4):  x_0_1 + x_1_1 + x_2_1 >= 30
constr(5):  x_0_2 + x_1_2 + x_2_2 >= 30
constr(6):  x_0_3 + x_1_3 + x_2_3 >= 40
constr(7):  x_1_2 = 0
Bounds
Integers
x_0_0 x_0_1 x_0_2 x_0_3 x_1_0 x_1_1 x_1_2 x_1_3 x_2_0 x_2_1 
x_2_2 x_2_3 
End
